
  12    4
  10   10   10   10

   0   0   0   0   0   2 2 5 
   9  10  10  10  10   3 11 4 3 
   5  10  10  10  10   3 10 9 7 
   6  10  10  10  10   2 10 6 
   5  10  10  10  10   3 11 9 8 
   3  10  10  10  10   1 7 
  10  10  10  10  10   1 8 
   9  10  10  10  10   1 12
   1  10  10  10  10   1 12
   3  10  10  10  10   1 12
   5  10  10  10  10   1 12
   0   0   0   0   0   0 
